PROBLEM NAME: small_1_UncorrelatedWithSimilarWeights_n14_m39_c1
KNAPSACK DATA TYPE:
DIMENSION: 14
NUMBER OF ITEMS: 39
CAPACITY OF KNAPSACK: 3563
MIN SPEED: 0.1
MAX SPEED: 1.0
RENTING RATIO: 1.0
EDGE_WEIGHT_TYPE: CEIL_2D
NODE_COORD_SECTION	(INDEX, X, Y): 
1	766	233
2	894	117
3	506	926
4	535	283
5	463	585
6	908	370
7	103	987
8	860	228
9	101	156
10	484	770
11	889	132
12	497	601
13	542	567
14	650	594
ITEMS SECTION	(INDEX, PROFIT, WEIGHT, ASSIGNED NODE NUMBER): 
1	103	1009	2
2	523	1010	2
3	352	1003	2
4	477	1001	3
5	405	1007	3
6	86	1004	3
7	991	1005	4
8	64	1001	4
9	941	1005	4
10	559	1002	5
11	487	1006	5
12	71	1005	5
13	196	1004	6
14	189	1005	6
15	338	1008	6
16	286	1010	7
17	303	1002	7
18	449	1001	7
19	335	1009	8
20	113	1008	8
21	702	1007	8
22	517	1008	9
23	293	1010	9
24	383	1001	9
25	295	1000	10
26	713	1003	10
27	528	1008	10
28	115	1004	11
29	371	1002	11
30	877	1001	11
31	424	1008	12
32	221	1007	12
33	272	1006	12
34	884	1002	13
35	139	1005	13
36	905	1004	13
37	321	1008	14
38	519	1006	14
39	899	1005	14
